p4/p4_prob1.lp
Maximize
 obj: 4up + 12uf + 7uo + 8mp + 14mf + 11mo + 4pp + 13pf + 9po
Subject To
 c1: uf + uo + up <= 480
 c2: mf + mo + mp <= 400
 c3: pf + po + pp <= 230
 c4: uf + mf + pf <= 420
 c5: uo + mo + po <= 250
Bounds
 uf >= 0
 mf >= 0
 pf >= 0
 uo >= 0
 mo >= 0
 po >= 0
 up >= 0
 mp >= 0
 pp >= 0
End
